
ACE v2.3 

  instance
    name:main

  Loading variables...

  Loading constraints...

  domains
    types:1  values:729  sizes:[9:81]
  variables
    count:81  arrays:1  degrees:[3:51,4:30]
  constraints
    count:57  specific:57  arities:[1:30,9:27]
    distribution:[AllDifferentComplete:27,Extension1:30]
    wck:0.13  cpu:0.406  mem:39M596

  Building solver... 

  solver
    guaranteedAC:true
    wck:0.15  cpu:0.421  mem:42M603

  preprocessing
    effs:167  values:81  removedByAC:648  unsat:false
    wck:0.003  cpu:0.421  mem:42M603

    run1  dpts:-1..80  effs:167  wck:0.00  sols:1

  global
    effs:167
    stop:REACHED_GOAL  sols:1  sol1Cpu:0.421
    wck:0.16  cpu:0.421  mem:42M603


  Solution 1 in JSON format:
   {
    x: [
     [5, 3, 4, 6, 7, 8, 9, 1, 2],
     [6, 7, 2, 1, 9, 5, 3, 4, 8],
     [1, 9, 8, 3, 4, 2, 5, 6, 7],
     [8, 5, 9, 7, 6, 1, 4, 2, 3],
     [4, 2, 6, 8, 5, 3, 7, 9, 1],
     [7, 1, 3, 9, 2, 4, 8, 5, 6],
     [9, 6, 1, 5, 3, 7, 2, 8, 4],
     [2, 8, 7, 4, 1, 9, 6, 3, 5],
     [3, 4, 5, 2, 8, 6, 1, 7, 9]
    ]
   }

s SATISFIABLE

v <instantiation id='sol1' type='solution'> <list> x[][] </list> <values> 5 3 4 6 7 8 9 1 2 6 7 2 1 9 5 3 4 8 1 9 8 3 4 2 5 6 7 8 5 9 7 6 1 4 2 3 4 2 6 8 5 3 7 9 1 7 1 3 9 2 4 8 5 6 9 6 1 5 3 7 2 8 4 2 8 7 4 1 9 6 3 5 3 4 5 2 8 6 1 7 9 </values> </instantiation>

d WRONG DECISIONS 0
d FOUND SOLUTIONS 1
d INCOMPLETE EXPLORATION

c real time : 0.437
